
Gurobi 12.0.2 (win64) logging started Wed Jun  4 16:56:27 2025

Set parameter LogFile to value "C:\Ioana\_uni\honours\slp\algorithm\Main_files\results\others\fatty_acids\Task_003_Sample003_irr_gurobi.log"
Gurobi Optimizer version 12.0.2 build v12.0.2rc0 (win64 - Windows 11.0 (26100.2))

CPU model: Intel(R) Core(TM) Ultra 5 125H, instruction set [SSE2|AVX|AVX2]
Thread count: 14 physical cores, 18 logical processors, using up to 18 threads

Non-default parameters:
TimeLimit  2200

Optimize a model with 47226 rows, 34495 columns and 146682 nonzeros
Model fingerprint: 0x6d390976
Variable types: 17250 continuous, 17245 integer (17245 binary)
Coefficient statistics:
  Matrix range     [1e-04, 8e+04]
  Objective range  [2e-05, 1e+01]
  Bounds range     [1e+00, 1e+03]
  RHS range        [1e+00, 1e+00]
Presolve removed 30826 rows and 21542 columns
Presolve time: 0.52s
Presolved: 16400 rows, 12953 columns, 54573 nonzeros
Variable types: 6410 continuous, 6543 integer (6543 binary)

Root relaxation: objective 8.784815e-04, 63 iterations, 0.02 seconds (0.01 work units)

    Nodes    |    Current Node    |     Objective Bounds      |     Work
 Expl Unexpl |  Obj  Depth IntInf | Incumbent    BestBd   Gap | It/Node Time

     0     0    0.00088    0    2          -    0.00088      -     -    0s
H    0     0                       0.8784815    0.00088   100%     -    0s

Cutting planes:
  Cover: 2
  MIR: 3
  Flow cover: 2
  Flow path: 1
  Relax-and-lift: 1

Explored 1 nodes (63 simplex iterations) in 0.86 seconds (0.57 work units)
Thread count was 18 (of 18 available processors)

Solution count 1: 0.878481 

Optimal solution found (tolerance 1.00e-04)
Best objective 8.784814762069e-01, best bound 8.784814762069e-01, gap 0.0000%
